529.58,71.1,81.2
540.96,69.6,79.49
521.21,72.24,82.5
608.43,61.88,70.68
564.32,66.72,76.2
564.84,66.66,76.13
597.44,63.02,71.98
547.86,68.73,78.49
593.01,63.49,72.51
625.47,60.2,68.75
543.91,69.22,79.06
587.95,64.04,73.14
590.67,63.74,72.8
531.04,70.9,80.98
565.24,66.61,76.08
547.56,68.76,78.53
613.74,61.35,70.07
625.09,60.23,68.79
558.95,67.36,76.93
578.68,65.07,74.31
